sat-intances/16.param.solution
language ESSENCE' 1.0
letting actionFrom be [0, 2, 2, 3, 3, 3, 3, 2, 3, 2, 0, 2, 3, 3, 2, 1, 2]
letting actionTo be [2, 3, 1, 2, 2, 2, 2, 1, 2, 1, 2, 3, 2, 2, 1, 2, 1]
letting actionTypes be [1, 4, 2, 7, 9, 9, 5, 2, 8, 2, 1, 4, 9, 6, 2, 0, 0]
letting pointers be [[0, 1, 1, 1, 1, 1, 1, 1, 1, 1, 1, 2, 2, 2, 2, 2, 2, 2;int(0..17)], 
[0, 0, 0, 1, 1, 1, 1, 1, 2, 2, 3, 3, 3, 3, 3, 4, 4, 4;int(0..17)];int(0..1)]
letting statePlaces be [[-1, 1, 1, 1, 2, 4, 8, 10, 10, 1, 1, 6, 6, 36, 30, 30, 30, 30;int(0..17)], 
[-1, -1, 1, 1, 2, 2, 2, 2, 2, 1, 1, 1, 6, 6, 6, 6, 6, 6;int(0..17)];int(2..3)]
